\ENCODING=ISO-8859-1
\Problem name: ilog.cplex

Minimize
 obj: 4 x("u3")("r1") + 3 x("u2")("r1") + 2 x("u1")("r1") + 5 x("u3")("r2")
      + 4 x("u2")("r2") + 3 x("u1")("r2") + 6 x("u3")("r3") + 5 x("u2")("r3")
      + 4 x("u1")("r3") + 7 x("u3")("r4") + 6 x("u2")("r4") + 5 x("u1")("r4")
      + [ 48 x("u3")("r1") * x("u2")("r2") + 48 x("u3")("r1") * x("u1")("r2")
      + 420 x("u3")("r1") * x("u2")("r3") + 420 x("u3")("r1") * x("u1")("r3")
      + 168 x("u3")("r1") * x("u2")("r4") + 168 x("u3")("r1") * x("u1")("r4")
      + 48 x("u2")("r1") * x("u3")("r2") + 48 x("u2")("r1") * x("u1")("r2")
      + 420 x("u2")("r1") * x("u3")("r3") + 420 x("u2")("r1") * x("u1")("r3")
      + 168 x("u2")("r1") * x("u3")("r4") + 168 x("u2")("r1") * x("u1")("r4")
      + 48 x("u1")("r1") * x("u3")("r2") + 48 x("u1")("r1") * x("u2")("r2")
      + 420 x("u1")("r1") * x("u3")("r3") + 420 x("u1")("r1") * x("u2")("r3")
      + 168 x("u1")("r1") * x("u3")("r4") + 168 x("u1")("r1") * x("u2")("r4")
      + 188 x("u3")("r2") * x("u2")("r3") + 188 x("u3")("r2") * x("u1")("r3")
      + 144.044817927171 x("u3")("r2") * x("u2")("r4")
      + 144.044817927171 x("u3")("r2") * x("u1")("r4")
      + 188 x("u2")("r2") * x("u3")("r3") + 188 x("u2")("r2") * x("u1")("r3")
      + 144.044817927171 x("u2")("r2") * x("u3")("r4")
      + 144.044817927171 x("u2")("r2") * x("u1")("r4")
      + 188 x("u1")("r2") * x("u3")("r3") + 188 x("u1")("r2") * x("u2")("r3")
      + 144.044817927171 x("u1")("r2") * x("u3")("r4")
      + 144.044817927171 x("u1")("r2") * x("u2")("r4")
      + 26 x("u3")("r3") * x("u2")("r4") + 26 x("u3")("r3") * x("u1")("r4")
      + 26 x("u2")("r3") * x("u3")("r4") + 26 x("u2")("r3") * x("u1")("r4")
      + 26 x("u1")("r3") * x("u3")("r4") + 26 x("u1")("r3") * x("u2")("r4")
      ] / 2
Subject To
 capacity_constraint("r1"):  15 x("u3")("r1") + 10 x("u2")("r1")
                             + 5 x("u1")("r1") <= 10
 capacity_constraint("r2"):  15 x("u3")("r2") + 10 x("u2")("r2")
                             + 5 x("u1")("r2") <= 20
 capacity_constraint("r3"):  15 x("u3")("r3") + 10 x("u2")("r3")
                             + 5 x("u1")("r3") <= 5
 capacity_constraint("r4"):  15 x("u3")("r4") + 10 x("u2")("r4")
                             + 5 x("u1")("r4") <= 40
 allocation_resources("u1"): x("u1")("r1") + x("u1")("r2") + x("u1")("r3")
                             + x("u1")("r4")  = 1
 allocation_resources("u2"): x("u2")("r1") + x("u2")("r2") + x("u2")("r3")
                             + x("u2")("r4")  = 1
 allocation_resources("u3"): x("u3")("r1") + x("u3")("r2") + x("u3")("r3")
                             + x("u3")("r4")  = 1
Bounds
 0 <= x("u3")("r1") <= 1
 0 <= x("u2")("r1") <= 1
      x("u1")("r1") = 0
 0 <= x("u3")("r2") <= 1
 0 <= x("u2")("r2") <= 1
      x("u1")("r2") = 0
      x("u3")("r3") = 0
 0 <= x("u2")("r3") <= 1
 0 <= x("u1")("r3") <= 1
      x("u3")("r4") = 0
 0 <= x("u2")("r4") <= 1
 0 <= x("u1")("r4") <= 1
Binaries
 x("u3")("r1")  x("u2")("r1")  x("u1")("r1")  x("u3")("r2")  x("u2")("r2") 
 x("u1")("r2")  x("u3")("r3")  x("u2")("r3")  x("u1")("r3")  x("u3")("r4") 
 x("u2")("r4")  x("u1")("r4") 
End
